\ENCODING=ISO-8859-1
\Problem name: ilog.cplex

Minimize
 obj1: 105715 x1 + 99106 x2 + 94143 x3 + 94042 x4 + 98014 x5 + 107628 x6
       + 109369 x7 + 109436 x8 + 108739 x9 + 92430 x10 + 95023 x11 + 97869 x12
       + 104532 x13 + 104943 x14 + 107498 x15 + 103190 x16 + 93422 x17
       + 109087 x18 + 99957 x19 + 107677 x20 + 98467 x21 + 109809 x22
       + 107746 x23 + 92716 x24 + 106255 x25 + 100930 x26 + 92983 x27
       + 103784 x28 + 93873 x29 + 90320 x30 + 100745 x31 + 90729 x32
       + 94533 x33 + 91498 x34 + 96207 x35 + 98253 x36 + 104259 x37 + 92544 x38
       + 104593 x39 + 106071 x40 + 99858 x41 + 105526 x42 + 103942 x43
       + 103372 x44 + 91865 x45 + 102662 x46 + 104464 x47 + 108034 x48
       + 95236 x49 + 99048 x50 + 107658 x51 + 107458 x52 + 105258 x53
       + 105994 x54 + 93375 x55 + 104927 x56 + 96482 x57 + 93924 x58
       + 93674 x59 + 103091 x60 + 104477 x61 + 103610 x62 + 105624 x63
       + 100571 x64 + 97823 x65 + 109792 x66 + 97229 x67 + 102871 x68
       + 108632 x69 + 92944 x70 + 98086 x71 + 108260 x72 + 102467 x73
       + 103663 x74 + 100644 x75 + 95792 x76 + 100350 x77 + 105623 x78
       + 104492 x79 + 95663 x80 + 97030 x81 + 103480 x82 + 95797 x83
       + 93276 x84 + 104944 x85 + 103224 x86 + 97777 x87 + 108963 x88
       + 99372 x89 + 108901 x90 + 103039 x91 + 91114 x92 + 93578 x93
       + 106199 x94 + 99702 x95 + 107381 x96 + 106672 x97 + 95630 x98
       + 94991 x99 + 101125 x100 + 101466 x101 + 95823 x102 + 102328 x103
       + 98417 x104 + 104768 x105 + 100953 x106 + 90953 x107 + 104690 x108
       + 98381 x109 + 105369 x110 + 100702 x111 + 99522 x112 + 105468 x113
       + 103221 x114 + 98828 x115 + 103050 x116 + 94031 x117 + 91200 x118
       + 100599 x119 + 108156 x120 + 108852 x121 + 105888 x122 + 99494 x123
       + 90145 x124 + 107167 x125 + 96927 x126 + 102458 x127 + 104719 x128
       + 108364 x129 + 102050 x130 + 109289 x131 + 109138 x132 + 97468 x133
       + 104896 x134 + 91111 x135 + 105613 x136 + 108841 x137 + 96709 x138
       + 97571 x139 + 94912 x140 + 94949 x141 + 91471 x142 + 97914 x143
       + 91853 x144 + 90473 x145 + 100806 x146 + 97089 x147 + 108556 x148
       + 93575 x149 + 91958 x150 + 91130 x151 + 109100 x152 + 107381 x153
       + 95454 x154 + 102615 x155 + 90328 x156 + 101647 x157 + 93004 x158
       + 99237 x159 + 105276 x160 + 107112 x161 + 100701 x162 + 106340 x163
       + 98090 x164 + 103141 x165 + 107813 x166 + 97723 x167 + 102254 x168
       + 103082 x169 + 97212 x170 + 108120 x171 + 107584 x172 + 101115 x173
       + 99942 x174 + 95451 x175 + 105682 x176 + 99420 x177 + 103458 x178
       + 91269 x179 + 98386 x180 + 99275 x181 + 92676 x182 + 95974 x183
       + 99599 x184 + 94364 x185 + 109527 x186 + 90688 x187 + 96820 x188
       + 94895 x189 + 99830 x190 + 105278 x191 + 96420 x192 + 92467 x193
       + 94880 x194 + 99151 x195 + 95452 x196 + 94755 x197 + 107074 x198
       + 105020 x199 + 91195 x200 + 98672 x201 + 108959 x202 + 103569 x203
       + 94299 x204 + 107068 x205 + 98797 x206 + 96946 x207 + 104557 x208
       + 94920 x209 + 109776 x210 + 92225 x211 + 93851 x212 + 101473 x213
       + 91254 x214 + 99250 x215 + 107386 x216 + 105867 x217 + 97298 x218
       + 101218 x219 + 106562 x220 + 95572 x221 + 100346 x222 + 90894 x223
       + 94654 x224 + 99278 x225 + 105897 x226 + 100548 x227 + 109901 x228
       + 108890 x229 + 97980 x230 + 109474 x231 + 99747 x232 + 98895 x233
       + 94479 x234 + 109411 x235 + 104608 x236 + 105600 x237 + 96458 x238
       + 105212 x239 + 99948 x240 + 91341 x241 + 92346 x242 + 105345 x243
       + 98649 x244 + 108809 x245 + 91727 x246 + 95044 x247 + 100365 x248
       + 103939 x249 + 102464 x250 + 90275 x251 + 94619 x252 + 96089 x253
       + 94280 x254 + 100227 x255 + 109977 x256 + 102474 x257 + 102969 x258
       + 108143 x259 + 90079 x260 + 100986 x261 + 106003 x262 + 97041 x263
       + 90476 x264 + 94328 x265 + 105600 x266 + 98139 x267 + 98382 x268
       + 109350 x269 + 108009 x270 + 94428 x271 + 94271 x272 + 96469 x273
       + 108277 x274 + 93072 x275 + 97557 x276 + 90583 x277 + 100874 x278
       + 97237 x279 + 102520 x280 + 97154 x281 + 98279 x282 + 100453 x283
       + 95189 x284 + 94931 x285 + 91997 x286 + 94776 x287 + 107081 x288
       + 100239 x289 + 93488 x290 + 107761 x291 + 107467 x292 + 96877 x293
       + 106051 x294 + 102673 x295 + 102303 x296 + 100322 x297 + 103013 x298
       + 91379 x299 + 94978 x300 + 91725 x301 + 101898 x302 + 93532 x303
       + 93626 x304 + 102838 x305 + 106289 x306 + 108054 x307 + 108538 x308
       + 99768 x309 + 100757 x310 + 92673 x311 + 97355 x312 + 97714 x313
       + 108781 x314 + 100739 x315 + 106371 x316 + 103501 x317 + 90795 x318
       + 105769 x319 + 92558 x320 + 99348 x321 + 109619 x322 + 99666 x323
       + 92372 x324 + 104548 x325 + 104478 x326 + 107305 x327 + 94446 x328
       + 109124 x329 + 97827 x330 + 109067 x331 + 103926 x332 + 106224 x333
       + 100127 x334 + 93402 x335 + 97437 x336 + 103289 x337 + 104368 x338
       + 102591 x339 + 94602 x340 + 105978 x341 + 94253 x342 + 106646 x343
       + 94524 x344 + 103383 x345 + 107880 x346 + 102620 x347 + 103811 x348
       + 98212 x349 + 102132 x350 + 109606 x351 + 96468 x352 + 101472 x353
       + 92138 x354 + 93314 x355 + 95399 x356 + 107561 x357 + 94825 x358
       + 108355 x359 + 90267 x360 + 107107 x361 + 97722 x362 + 105853 x363
       + 92346 x364 + 101357 x365 + 93100 x366 + 101105 x367 + 102164 x368
       + 97873 x369 + 105881 x370 + 105721 x371 + 101933 x372 + 108999 x373
       + 104170 x374 + 109338 x375 + 98581 x376 + 104921 x377 + 97851 x378
       + 107494 x379 + 99910 x380 + 109304 x381 + 93582 x382 + 103576 x383
       + 95577 x384 + 107584 x385 + 103973 x386 + 91641 x387 + 108355 x388
       + 105347 x389 + 102806 x390 + 94608 x391 + 90075 x392 + 99823 x393
       + 100875 x394 + 103335 x395 + 97137 x396 + 108831 x397 + 100309 x398
       + 98620 x399 + 91570 x400 + 98391 x401 + 109150 x402 + 100420 x403
       + 95401 x404 + 102736 x405 + 102547 x406 + 96381 x407 + 98406 x408
       + 98599 x409 + 102053 x410 + 95244 x411 + 102353 x412 + 99436 x413
       + 90374 x414 + 109778 x415 + 98413 x416 + 94625 x417 + 105274 x418
       + 98571 x419 + 98695 x420 + 97706 x421 + 106341 x422 + 92878 x423
       + 98756 x424 + 105008 x425 + 95073 x426 + 100258 x427 + 107853 x428
       + 106500 x429 + 99588 x430 + 109488 x431 + 94408 x432 + 98442 x433
       + 109038 x434 + 96182 x435 + 102582 x436 + 95746 x437 + 91866 x438
       + 93783 x439 + 103730 x440 + 104015 x441 + 101467 x442 + 97453 x443
       + 108778 x444 + 103433 x445 + 100388 x446 + 103397 x447 + 98741 x448
       + 101868 x449 + 105776 x450 + 93304 x451 + 98204 x452 + 94372 x453
       + 94454 x454 + 106296 x455 + 97589 x456 + 96794 x457 + 97246 x458
       + 94053 x459 + 96557 x460 + 102302 x461 + 99091 x462 + 108704 x463
       + 93154 x464 + 101369 x465 + 103979 x466 + 107655 x467 + 101106 x468
       + 108133 x469 + 101922 x470 + 94662 x471 + 101139 x472 + 109021 x473
       + 108912 x474 + 92289 x475 + 101293 x476 + 93168 x477 + 100210 x478
       + 97299 x479 + 95865 x480 + 93016 x481 + 91119 x482 + 90028 x483
       + 106895 x484 + 106959 x485 + 95077 x486 + 109632 x487 + 92019 x488
       + 102283 x489 + 107755 x490 + 104521 x491 + 105799 x492 + 95151 x493
       + 102811 x494 + 102827 x495 + 99158 x496 + 98942 x497 + 102003 x498
       + 93193 x499 + 105306 x500 + 90373 x501 + 99197 x502 + 91865 x503
       + 90175 x504 + 106204 x505 + 107337 x506 + 99199 x507 + 104545 x508
       + 100366 x509 + 98533 x510 + 93596 x511 + 105366 x512 + 96638 x513
       + 97280 x514 + 96561 x515 + 96472 x516 + 103003 x517 + 107332 x518
       + 103811 x519 + 102157 x520 + 90366 x521 + 103837 x522 + 94295 x523
       + 91046 x524 + 100527 x525 + 104104 x526 + 101478 x527 + 92208 x528
       + 96148 x529 + 102715 x530 + 99381 x531 + 90657 x532 + 98899 x533
       + 99703 x534 + 99686 x535 + 95185 x536 + 101051 x537 + 104120 x538
       + 95532 x539 + 97887 x540 + 91789 x541 + 99434 x542 + 92994 x543
       + 99724 x544 + 100693 x545 + 103241 x546 + 94069 x547 + 93836 x548
       + 103602 x549 + 96921 x550 + 107496 x551 + 103430 x552 + 105074 x553
       + 104662 x554 + 108691 x555 + 102871 x556 + 92348 x557 + 90081 x558
       + 109571 x559 + 90518 x560 + 90310 x561 + 93625 x562 + 109687 x563
       + 108666 x564 + 96130 x565 + 107517 x566 + 106423 x567 + 108761 x568
       + 106849 x569 + 98390 x570 + 107231 x571 + 95230 x572 + 105236 x573
       + 103069 x574 + 106729 x575 + 96920 x576 + 101919 x577 + 103929 x578
       + 101982 x579 + 106409 x580 + 105079 x581 + 96823 x582 + 100415 x583
       + 94336 x584 + 102946 x585 + 96799 x586 + 106510 x587 + 108422 x588
       + 98858 x589 + 104643 x590 + 95833 x591 + 105012 x592 + 93850 x593
       + 100753 x594 + 97921 x595 + 94712 x596 + 107513 x597 + 101918 x598
       + 93151 x599 - 96948 x600 + 36451 x601 + 38508 x602 + 36019 x603
       + 37958 x604 + 42628 x605 + 41078 x606 + 43908 x607 + 43740 x608
       + 40301 x609 + 40986 x610 + 42603 x611 + 36759 x612 + 41443 x613
       + 42750 x614 + 36657 x615 + 36274 x616 + 37480 x617 + 39395 x618
       + 40394 x619 + 41514 x620 + 41067 x621 + 43679 x622 + 36767 x623
       + 40794 x624 + 41311 x625 + 38995 x626 + 37659 x627 + 40120 x628
       + 43575 x629 + 39557 x630 + 37887 x631 + 40978 x632 + 37435 x633
       + 38364 x634 + 36969 x635 + 40274 x636 + 37549 x637 + 41062 x638
       + 37332 x639 + 39383 x640 + 40164 x641 + 42203 x642 + 38895 x643
       + 38055 x644 + 40661 x645 + 41552 x646 + 42087 x647 + 36386 x648
       + 36997 x649 + 37941 x650 + 40157 x651 + 38375 x652 + 40092 x653
       + 40849 x654 + 39182 x655 + 39548 x656 + 37155 x657 + 41221 x658
       + 42561 x659 + 58316 x660
Subject To
 c1:   x11 - x13 + x16 - x19 - x20 + x26 + x27 - x34 + x37 + x53 - x55 + x57
        = 0
 c2:   x71 - x73 + x76 - x79 - x80 + x86 + x87 - x94 + x97 + x113 - x115 + x117
        = 0
 c3:   x131 - x133 + x136 - x139 - x140 + x146 + x147 - x154 + x157 + x173
       - x175 + x177  = -1
 c4:   x191 - x193 + x196 - x199 - x200 + x206 + x207 - x214 + x217 + x233
       - x235 + x237  = 0
 c5:   x251 - x253 + x256 - x259 - x260 + x266 + x267 - x274 + x277 + x293
       - x295 + x297  = 0
 c6:   x311 - x313 + x316 - x319 - x320 + x326 + x327 - x334 + x337 + x353
       - x355 + x357  = 0
 c7:   x371 - x373 + x376 - x379 - x380 + x386 + x387 - x394 + x397 + x413
       - x415 + x417  = -1
 c8:   x431 - x433 + x436 - x439 - x440 + x446 + x447 - x454 + x457 + x473
       - x475 + x477  = 0
 c9:   x491 - x493 + x496 - x499 - x500 + x506 + x507 - x514 + x517 + x533
       - x535 + x537  = 0
 c10:  x551 - x553 + x556 - x559 - x560 + x566 + x567 - x574 + x577 + x593
       - x595 + x597  = 0
 c11:  - x2 + x14 - x15 + x30 - x43 - x46 + x59  = 1
 c12:  - x62 + x74 - x75 + x90 - x103 - x106 + x119  = 0
 c13:  - x122 + x134 - x135 + x150 - x163 - x166 + x179  = 0
 c14:  - x182 + x194 - x195 + x210 - x223 - x226 + x239  = 0
 c15:  - x242 + x254 - x255 + x270 - x283 - x286 + x299  = 0
 c16:  - x302 + x314 - x315 + x330 - x343 - x346 + x359  = 0
 c17:  - x362 + x374 - x375 + x390 - x403 - x406 + x419  = 0
 c18:  - x422 + x434 - x435 + x450 - x463 - x466 + x479  = 0
 c19:  - x482 + x494 - x495 + x510 - x523 - x526 + x539  = 0
 c20:  - x542 + x554 - x555 + x570 - x583 - x586 + x599  = 0
 c21:  - x4 + x12 - x41 - x57 - x59  = 0
 c22:  - x64 + x72 - x101 - x117 - x119  = 0
 c23:  - x124 + x132 - x161 - x177 - x179  = 0
 c24:  - x184 + x192 - x221 - x237 - x239  = -1
 c25:  - x244 + x252 - x281 - x297 - x299  = 0
 c26:  - x304 + x312 - x341 - x357 - x359  = 0
 c27:  - x364 + x372 - x401 - x417 - x419  = 0
 c28:  - x424 + x432 - x461 - x477 - x479  = 0
 c29:  - x484 + x492 - x521 - x537 - x539  = 0
 c30:  - x544 + x552 - x581 - x597 - x599  = 0
 c31:  x4 - x17 + x56 - x60  = 0
 c32:  x64 - x77 + x116 - x120  = 0
 c33:  x124 - x137 + x176 - x180  = 0
 c34:  x184 - x197 + x236 - x240  = 0
 c35:  x244 - x257 + x296 - x300  = 0
 c36:  x304 - x317 + x356 - x360  = 0
 c37:  x364 - x377 + x416 - x420  = 0
 c38:  x424 - x437 + x476 - x480  = 0
 c39:  x484 - x497 + x536 - x540  = 0
 c40:  x544 - x557 + x596 - x600  = 0
 c41:  - x10 + x13 + x15 + x22 + x23 - x28 + x35 - x37 + x45 - x58  = 0
 c42:  - x70 + x73 + x75 + x82 + x83 - x88 + x95 - x97 + x105 - x118  = 0
 c43:  - x130 + x133 + x135 + x142 + x143 - x148 + x155 - x157 + x165 - x178
        = 0
 c44:  - x190 + x193 + x195 + x202 + x203 - x208 + x215 - x217 + x225 - x238
        = 0
 c45:  - x250 + x253 + x255 + x262 + x263 - x268 + x275 - x277 + x285 - x298
        = 1
 c46:  - x310 + x313 + x315 + x322 + x323 - x328 + x335 - x337 + x345 - x358
        = 0
 c47:  - x370 + x373 + x375 + x382 + x383 - x388 + x395 - x397 + x405 - x418
        = 0
 c48:  - x430 + x433 + x435 + x442 + x443 - x448 + x455 - x457 + x465 - x478
        = 0
 c49:  - x490 + x493 + x495 + x502 + x503 - x508 + x515 - x517 + x525 - x538
        = 0
 c50:  - x550 + x553 + x555 + x562 + x563 - x568 + x575 - x577 + x585 - x598
        = 0
 c51:  x2 - x3 - x21 + x32 - x38 - x40 - x45 - x47 - x48 - x53 + x58  = 0
 c52:  x62 - x63 - x81 + x92 - x98 - x100 - x105 - x107 - x108 - x113 + x118
        = 0
 c53:  x122 - x123 - x141 + x152 - x158 - x160 - x165 - x167 - x168 - x173
       + x178  = 0
 c54:  x182 - x183 - x201 + x212 - x218 - x220 - x225 - x227 - x228 - x233
       + x238  = 0
 c55:  x242 - x243 - x261 + x272 - x278 - x280 - x285 - x287 - x288 - x293
       + x298  = 0
 c56:  x302 - x303 - x321 + x332 - x338 - x340 - x345 - x347 - x348 - x353
       + x358  = 0
 c57:  x362 - x363 - x381 + x392 - x398 - x400 - x405 - x407 - x408 - x413
       + x418  = 0
 c58:  x422 - x423 - x441 + x452 - x458 - x460 - x465 - x467 - x468 - x473
       + x478  = 0
 c59:  x482 - x483 - x501 + x512 - x518 - x520 - x525 - x527 - x528 - x533
       + x538  = 0
 c60:  x542 - x543 - x561 + x572 - x578 - x580 - x585 - x587 - x588 - x593
       + x598  = 0
 c61:  - x1 + x7 - x18 + x25 - x30 + x42 + x55  = 0
 c62:  - x61 + x67 - x78 + x85 - x90 + x102 + x115  = -1
 c63:  - x121 + x127 - x138 + x145 - x150 + x162 + x175  = 0
 c64:  - x181 + x187 - x198 + x205 - x210 + x222 + x235  = 0
 c65:  - x241 + x247 - x258 + x265 - x270 + x282 + x295  = 0
 c66:  - x301 + x307 - x318 + x325 - x330 + x342 + x355  = 0
 c67:  - x361 + x367 - x378 + x385 - x390 + x402 + x415  = 0
 c68:  - x421 + x427 - x438 + x445 - x450 + x462 + x475  = 0
 c69:  - x481 + x487 - x498 + x505 - x510 + x522 + x535  = 0
 c70:  - x541 + x547 - x558 + x565 - x570 + x582 + x595  = 0
 c71:  - x5 + x6 - x23 - x25 - x26 - x31 - x36 + x39 + x40 - x50 - x52 + x54
       - x56  = 0
 c72:  - x65 + x66 - x83 - x85 - x86 - x91 - x96 + x99 + x100 - x110 - x112
       + x114 - x116  = 0
 c73:  - x125 + x126 - x143 - x145 - x146 - x151 - x156 + x159 + x160 - x170
       - x172 + x174 - x176  = 0
 c74:  - x185 + x186 - x203 - x205 - x206 - x211 - x216 + x219 + x220 - x230
       - x232 + x234 - x236  = 0
 c75:  - x245 + x246 - x263 - x265 - x266 - x271 - x276 + x279 + x280 - x290
       - x292 + x294 - x296  = 0
 c76:  - x305 + x306 - x323 - x325 - x326 - x331 - x336 + x339 + x340 - x350
       - x352 + x354 - x356  = -1
 c77:  - x365 + x366 - x383 - x385 - x386 - x391 - x396 + x399 + x400 - x410
       - x412 + x414 - x416  = 0
 c78:  - x425 + x426 - x443 - x445 - x446 - x451 - x456 + x459 + x460 - x470
       - x472 + x474 - x476  = 0
 c79:  - x485 + x486 - x503 - x505 - x506 - x511 - x516 + x519 + x520 - x530
       - x532 + x534 - x536  = 0
 c80:  - x545 + x546 - x563 - x565 - x566 - x571 - x576 + x579 + x580 - x590
       - x592 + x594 - x596  = 1
 c81:  x1 + x9 + x38 + x41 + x60  = 0
 c82:  x61 + x69 + x98 + x101 + x120  = 0
 c83:  x121 + x129 + x158 + x161 + x180  = 0
 c84:  x181 + x189 + x218 + x221 + x240  = 1
 c85:  x241 + x249 + x278 + x281 + x300  = 0
 c86:  x301 + x309 + x338 + x341 + x360  = 0
 c87:  x361 + x369 + x398 + x401 + x420  = 0
 c88:  x421 + x429 + x458 + x461 + x480  = 0
 c89:  x481 + x489 + x518 + x521 + x540  = 0
 c90:  x541 + x549 + x578 + x581 + x600  = 0
 c91:  - x6 - x8 - x11 - x14 + x17 - x42 + x44 + x49 + x50  = -1
 c92:  - x66 - x68 - x71 - x74 + x77 - x102 + x104 + x109 + x110  = 0
 c93:  - x126 - x128 - x131 - x134 + x137 - x162 + x164 + x169 + x170  = 0
 c94:  - x186 - x188 - x191 - x194 + x197 - x222 + x224 + x229 + x230  = 0
 c95:  - x246 - x248 - x251 - x254 + x257 - x282 + x284 + x289 + x290  = 0
 c96:  - x306 - x308 - x311 - x314 + x317 - x342 + x344 + x349 + x350  = 1
 c97:  - x366 - x368 - x371 - x374 + x377 - x402 + x404 + x409 + x410  = 0
 c98:  - x426 - x428 - x431 - x434 + x437 - x462 + x464 + x469 + x470  = 0
 c99:  - x486 - x488 - x491 - x494 + x497 - x522 + x524 + x529 + x530  = 1
 c100: - x546 - x548 - x551 - x554 + x557 - x582 + x584 + x589 + x590  = -1
 c101: x8 + x21 - x22 - x29 + x31 - x32 - x44  = 0
 c102: x68 + x81 - x82 - x89 + x91 - x92 - x104  = 0
 c103: x128 + x141 - x142 - x149 + x151 - x152 - x164  = 0
 c104: x188 + x201 - x202 - x209 + x211 - x212 - x224  = 0
 c105: x248 + x261 - x262 - x269 + x271 - x272 - x284  = 0
 c106: x308 + x321 - x322 - x329 + x331 - x332 - x344  = 0
 c107: x368 + x381 - x382 - x389 + x391 - x392 - x404  = 0
 c108: x428 + x441 - x442 - x449 + x451 - x452 - x464  = 1
 c109: x488 + x501 - x502 - x509 + x511 - x512 - x524  = 0
 c110: x548 + x561 - x562 - x569 + x571 - x572 - x584  = 0
 c111: - x9 + x18 + x19 + x24 - x27 + x28 + x46 + x48 - x49 + x52  = 0
 c112: - x69 + x78 + x79 + x84 - x87 + x88 + x106 + x108 - x109 + x112  = 0
 c113: - x129 + x138 + x139 + x144 - x147 + x148 + x166 + x168 - x169 + x172
        = 0
 c114: - x189 + x198 + x199 + x204 - x207 + x208 + x226 + x228 - x229 + x232
        = 0
 c115: - x249 + x258 + x259 + x264 - x267 + x268 + x286 + x288 - x289 + x292
        = -1
 c116: - x309 + x318 + x319 + x324 - x327 + x328 + x346 + x348 - x349 + x352
        = 0
 c117: - x369 + x378 + x379 + x384 - x387 + x388 + x406 + x408 - x409 + x412
        = 1
 c118: - x429 + x438 + x439 + x444 - x447 + x448 + x466 + x468 - x469 + x472
        = 0
 c119: - x489 + x498 + x499 + x504 - x507 + x508 + x526 + x528 - x529 + x532
        = 0
 c120: - x549 + x558 + x559 + x564 - x567 + x568 + x586 + x588 - x589 + x592
        = 0
 c121: x5 + x33 + x34 - x35 - x54  = 0
 c122: x65 + x93 + x94 - x95 - x114  = 0
 c123: x125 + x153 + x154 - x155 - x174  = 0
 c124: x185 + x213 + x214 - x215 - x234  = 0
 c125: x245 + x273 + x274 - x275 - x294  = 0
 c126: x305 + x333 + x334 - x335 - x354  = 0
 c127: x365 + x393 + x394 - x395 - x414  = 0
 c128: x425 + x453 + x454 - x455 - x474  = -1
 c129: x485 + x513 + x514 - x515 - x534  = 0
 c130: x545 + x573 + x574 - x575 - x594  = 0
 c131: x3 - x16 - x24 - x33 + x43 + x51  = 0
 c132: x63 - x76 - x84 - x93 + x103 + x111  = 0
 c133: x123 - x136 - x144 - x153 + x163 + x171  = 1
 c134: x183 - x196 - x204 - x213 + x223 + x231  = 0
 c135: x243 - x256 - x264 - x273 + x283 + x291  = 0
 c136: x303 - x316 - x324 - x333 + x343 + x351  = 0
 c137: x363 - x376 - x384 - x393 + x403 + x411  = 0
 c138: x423 - x436 - x444 - x453 + x463 + x471  = 0
 c139: x483 - x496 - x504 - x513 + x523 + x531  = -1
 c140: x543 - x556 - x564 - x573 + x583 + x591  = 0
 c141: - x7 + x10 - x12 + x20 + x29 + x36 - x39 + x47 - x51  = 0
 c142: - x67 + x70 - x72 + x80 + x89 + x96 - x99 + x107 - x111  = 1
 c143: - x127 + x130 - x132 + x140 + x149 + x156 - x159 + x167 - x171  = 0
 c144: - x187 + x190 - x192 + x200 + x209 + x216 - x219 + x227 - x231  = 0
 c145: - x247 + x250 - x252 + x260 + x269 + x276 - x279 + x287 - x291  = 0
 c146: - x307 + x310 - x312 + x320 + x329 + x336 - x339 + x347 - x351  = 0
 c147: - x367 + x370 - x372 + x380 + x389 + x396 - x399 + x407 - x411  = 0
 c148: - x427 + x430 - x432 + x440 + x449 + x456 - x459 + x467 - x471  = 0
 c149: - x487 + x490 - x492 + x500 + x509 + x516 - x519 + x527 - x531  = 0
 c150: - x547 + x550 - x552 + x560 + x569 + x576 - x579 + x587 - x591  = 0
 c151: 4 x1 + 4 x61 + 4 x121 + 4 x181 + 4 x241 + 4 x301 + 4 x361 + 4 x421
       + 4 x481 + 4 x541 - 5 x601 <= 0
 c152: 4 x2 + 4 x62 + 4 x122 + 4 x182 + 4 x242 + 4 x302 + 4 x362 + 4 x422
       + 4 x482 + 4 x542 - 5 x602 <= 0
 c153: 4 x3 + 4 x63 + 4 x123 + 4 x183 + 4 x243 + 4 x303 + 4 x363 + 4 x423
       + 4 x483 + 4 x543 - 5 x603 <= 0
 c154: 4 x4 + 4 x64 + 4 x124 + 4 x184 + 4 x244 + 4 x304 + 4 x364 + 4 x424
       + 4 x484 + 4 x544 - 5 x604 <= 0
 c155: 4 x5 + 4 x65 + 4 x125 + 4 x185 + 4 x245 + 4 x305 + 4 x365 + 4 x425
       + 4 x485 + 4 x545 - 5 x605 <= 0
 c156: 4 x6 + 4 x66 + 4 x126 + 4 x186 + 4 x246 + 4 x306 + 4 x366 + 4 x426
       + 4 x486 + 4 x546 - 5 x606 <= 0
 c157: 4 x7 + 4 x67 + 4 x127 + 4 x187 + 4 x247 + 4 x307 + 4 x367 + 4 x427
       + 4 x487 + 4 x547 - 5 x607 <= 0
 c158: 4 x8 + 4 x68 + 4 x128 + 4 x188 + 4 x248 + 4 x308 + 4 x368 + 4 x428
       + 4 x488 + 4 x548 - 5 x608 <= 0
 c159: 4 x9 + 4 x69 + 4 x129 + 4 x189 + 4 x249 + 4 x309 + 4 x369 + 4 x429
       + 4 x489 + 4 x549 - 5 x609 <= 0
 c160: 4 x10 + 4 x70 + 4 x130 + 4 x190 + 4 x250 + 4 x310 + 4 x370 + 4 x430
       + 4 x490 + 4 x550 - 5 x610 <= 0
 c161: 4 x11 + 4 x71 + 4 x131 + 4 x191 + 4 x251 + 4 x311 + 4 x371 + 4 x431
       + 4 x491 + 4 x551 - 5 x611 <= 0
 c162: 4 x12 + 4 x72 + 4 x132 + 4 x192 + 4 x252 + 4 x312 + 4 x372 + 4 x432
       + 4 x492 + 4 x552 - 5 x612 <= 0
 c163: 4 x13 + 4 x73 + 4 x133 + 4 x193 + 4 x253 + 4 x313 + 4 x373 + 4 x433
       + 4 x493 + 4 x553 - 5 x613 <= 0
 c164: 4 x14 + 4 x74 + 4 x134 + 4 x194 + 4 x254 + 4 x314 + 4 x374 + 4 x434
       + 4 x494 + 4 x554 - 5 x614 <= 0
 c165: 4 x15 + 4 x75 + 4 x135 + 4 x195 + 4 x255 + 4 x315 + 4 x375 + 4 x435
       + 4 x495 + 4 x555 - 5 x615 <= 0
 c166: 4 x16 + 4 x76 + 4 x136 + 4 x196 + 4 x256 + 4 x316 + 4 x376 + 4 x436
       + 4 x496 + 4 x556 - 5 x616 <= 0
 c167: 4 x17 + 4 x77 + 4 x137 + 4 x197 + 4 x257 + 4 x317 + 4 x377 + 4 x437
       + 4 x497 + 4 x557 - 5 x617 <= 0
 c168: 4 x18 + 4 x78 + 4 x138 + 4 x198 + 4 x258 + 4 x318 + 4 x378 + 4 x438
       + 4 x498 + 4 x558 - 5 x618 <= 0
 c169: 4 x19 + 4 x79 + 4 x139 + 4 x199 + 4 x259 + 4 x319 + 4 x379 + 4 x439
       + 4 x499 + 4 x559 - 5 x619 <= 0
 c170: 4 x20 + 4 x80 + 4 x140 + 4 x200 + 4 x260 + 4 x320 + 4 x380 + 4 x440
       + 4 x500 + 4 x560 - 5 x620 <= 0
 c171: 4 x21 + 4 x81 + 4 x141 + 4 x201 + 4 x261 + 4 x321 + 4 x381 + 4 x441
       + 4 x501 + 4 x561 - 5 x621 <= 0
 c172: 4 x22 + 4 x82 + 4 x142 + 4 x202 + 4 x262 + 4 x322 + 4 x382 + 4 x442
       + 4 x502 + 4 x562 - 5 x622 <= 0
 c173: 4 x23 + 4 x83 + 4 x143 + 4 x203 + 4 x263 + 4 x323 + 4 x383 + 4 x443
       + 4 x503 + 4 x563 - 5 x623 <= 0
 c174: 4 x24 + 4 x84 + 4 x144 + 4 x204 + 4 x264 + 4 x324 + 4 x384 + 4 x444
       + 4 x504 + 4 x564 - 5 x624 <= 0
 c175: 4 x25 + 4 x85 + 4 x145 + 4 x205 + 4 x265 + 4 x325 + 4 x385 + 4 x445
       + 4 x505 + 4 x565 - 5 x625 <= 0
 c176: 4 x26 + 4 x86 + 4 x146 + 4 x206 + 4 x266 + 4 x326 + 4 x386 + 4 x446
       + 4 x506 + 4 x566 - 5 x626 <= 0
 c177: 4 x27 + 4 x87 + 4 x147 + 4 x207 + 4 x267 + 4 x327 + 4 x387 + 4 x447
       + 4 x507 + 4 x567 - 5 x627 <= 0
 c178: 4 x28 + 4 x88 + 4 x148 + 4 x208 + 4 x268 + 4 x328 + 4 x388 + 4 x448
       + 4 x508 + 4 x568 - 5 x628 <= 0
 c179: 4 x29 + 4 x89 + 4 x149 + 4 x209 + 4 x269 + 4 x329 + 4 x389 + 4 x449
       + 4 x509 + 4 x569 - 5 x629 <= 0
 c180: 4 x30 + 4 x90 + 4 x150 + 4 x210 + 4 x270 + 4 x330 + 4 x390 + 4 x450
       + 4 x510 + 4 x570 - 5 x630 <= 0
 c181: 4 x31 + 4 x91 + 4 x151 + 4 x211 + 4 x271 + 4 x331 + 4 x391 + 4 x451
       + 4 x511 + 4 x571 - 5 x631 <= 0
 c182: 4 x32 + 4 x92 + 4 x152 + 4 x212 + 4 x272 + 4 x332 + 4 x392 + 4 x452
       + 4 x512 + 4 x572 - 5 x632 <= 0
 c183: 4 x33 + 4 x93 + 4 x153 + 4 x213 + 4 x273 + 4 x333 + 4 x393 + 4 x453
       + 4 x513 + 4 x573 - 5 x633 <= 0
 c184: 4 x34 + 4 x94 + 4 x154 + 4 x214 + 4 x274 + 4 x334 + 4 x394 + 4 x454
       + 4 x514 + 4 x574 - 5 x634 <= 0
 c185: 4 x35 + 4 x95 + 4 x155 + 4 x215 + 4 x275 + 4 x335 + 4 x395 + 4 x455
       + 4 x515 + 4 x575 - 5 x635 <= 0
 c186: 4 x36 + 4 x96 + 4 x156 + 4 x216 + 4 x276 + 4 x336 + 4 x396 + 4 x456
       + 4 x516 + 4 x576 - 5 x636 <= 0
 c187: 4 x37 + 4 x97 + 4 x157 + 4 x217 + 4 x277 + 4 x337 + 4 x397 + 4 x457
       + 4 x517 + 4 x577 - 5 x637 <= 0
 c188: 4 x38 + 4 x98 + 4 x158 + 4 x218 + 4 x278 + 4 x338 + 4 x398 + 4 x458
       + 4 x518 + 4 x578 - 5 x638 <= 0
 c189: 4 x39 + 4 x99 + 4 x159 + 4 x219 + 4 x279 + 4 x339 + 4 x399 + 4 x459
       + 4 x519 + 4 x579 - 5 x639 <= 0
 c190: 4 x40 + 4 x100 + 4 x160 + 4 x220 + 4 x280 + 4 x340 + 4 x400 + 4 x460
       + 4 x520 + 4 x580 - 5 x640 <= 0
 c191: 4 x41 + 4 x101 + 4 x161 + 4 x221 + 4 x281 + 4 x341 + 4 x401 + 4 x461
       + 4 x521 + 4 x581 - 5 x641 <= 0
 c192: 4 x42 + 4 x102 + 4 x162 + 4 x222 + 4 x282 + 4 x342 + 4 x402 + 4 x462
       + 4 x522 + 4 x582 - 5 x642 <= 0
 c193: 4 x43 + 4 x103 + 4 x163 + 4 x223 + 4 x283 + 4 x343 + 4 x403 + 4 x463
       + 4 x523 + 4 x583 - 5 x643 <= 0
 c194: 4 x44 + 4 x104 + 4 x164 + 4 x224 + 4 x284 + 4 x344 + 4 x404 + 4 x464
       + 4 x524 + 4 x584 - 5 x644 <= 0
 c195: 4 x45 + 4 x105 + 4 x165 + 4 x225 + 4 x285 + 4 x345 + 4 x405 + 4 x465
       + 4 x525 + 4 x585 - 5 x645 <= 0
 c196: 4 x46 + 4 x106 + 4 x166 + 4 x226 + 4 x286 + 4 x346 + 4 x406 + 4 x466
       + 4 x526 + 4 x586 - 5 x646 <= 0
 c197: 4 x47 + 4 x107 + 4 x167 + 4 x227 + 4 x287 + 4 x347 + 4 x407 + 4 x467
       + 4 x527 + 4 x587 - 5 x647 <= 0
 c198: 4 x48 + 4 x108 + 4 x168 + 4 x228 + 4 x288 + 4 x348 + 4 x408 + 4 x468
       + 4 x528 + 4 x588 - 5 x648 <= 0
 c199: 4 x49 + 4 x109 + 4 x169 + 4 x229 + 4 x289 + 4 x349 + 4 x409 + 4 x469
       + 4 x529 + 4 x589 - 5 x649 <= 0
 c200: 4 x50 + 4 x110 + 4 x170 + 4 x230 + 4 x290 + 4 x350 + 4 x410 + 4 x470
       + 4 x530 + 4 x590 - 5 x650 <= 0
 c201: 4 x51 + 4 x111 + 4 x171 + 4 x231 + 4 x291 + 4 x351 + 4 x411 + 4 x471
       + 4 x531 + 4 x591 - 5 x651 <= 0
 c202: 4 x52 + 4 x112 + 4 x172 + 4 x232 + 4 x292 + 4 x352 + 4 x412 + 4 x472
       + 4 x532 + 4 x592 - 5 x652 <= 0
 c203: 4 x53 + 4 x113 + 4 x173 + 4 x233 + 4 x293 + 4 x353 + 4 x413 + 4 x473
       + 4 x533 + 4 x593 - 5 x653 <= 0
 c204: 4 x54 + 4 x114 + 4 x174 + 4 x234 + 4 x294 + 4 x354 + 4 x414 + 4 x474
       + 4 x534 + 4 x594 - 5 x654 <= 0
 c205: 4 x55 + 4 x115 + 4 x175 + 4 x235 + 4 x295 + 4 x355 + 4 x415 + 4 x475
       + 4 x535 + 4 x595 - 5 x655 <= 0
 c206: 4 x56 + 4 x116 + 4 x176 + 4 x236 + 4 x296 + 4 x356 + 4 x416 + 4 x476
       + 4 x536 + 4 x596 - 5 x656 <= 0
 c207: 4 x57 + 4 x117 + 4 x177 + 4 x237 + 4 x297 + 4 x357 + 4 x417 + 4 x477
       + 4 x537 + 4 x597 - 5 x657 <= 0
 c208: 4 x58 + 4 x118 + 4 x178 + 4 x238 + 4 x298 + 4 x358 + 4 x418 + 4 x478
       + 4 x538 + 4 x598 - 5 x658 <= 0
 c209: 4 x59 + 4 x119 + 4 x179 + 4 x239 + 4 x299 + 4 x359 + 4 x419 + 4 x479
       + 4 x539 + 4 x599 - 5 x659 <= 0
 c210: 4 x60 + 4 x120 + 4 x180 + 4 x240 + 4 x300 + 4 x360 + 4 x420 + 4 x480
       + 4 x540 + 4 x600 - 5 x660 <= 0
Bounds
 0 <= x1 <= 1
 0 <= x2 <= 1
 0 <= x3 <= 1
 0 <= x4 <= 1
 0 <= x5 <= 1
 0 <= x6 <= 1
 0 <= x7 <= 1
 0 <= x8 <= 1
 0 <= x9 <= 1
 0 <= x10 <= 1
 0 <= x11 <= 1
 0 <= x12 <= 1
 0 <= x13 <= 1
 0 <= x14 <= 1
 0 <= x15 <= 1
 0 <= x16 <= 1
 0 <= x17 <= 1
 0 <= x18 <= 1
 0 <= x19 <= 1
 0 <= x20 <= 1
 0 <= x21 <= 1
 0 <= x22 <= 1
 0 <= x23 <= 1
 0 <= x24 <= 1
 0 <= x25 <= 1
 0 <= x26 <= 1
 0 <= x27 <= 1
 0 <= x28 <= 1
 0 <= x29 <= 1
 0 <= x30 <= 1
 0 <= x31 <= 1
 0 <= x32 <= 1
 0 <= x33 <= 1
 0 <= x34 <= 1
 0 <= x35 <= 1
 0 <= x36 <= 1
 0 <= x37 <= 1
 0 <= x38 <= 1
 0 <= x39 <= 1
 0 <= x40 <= 1
 0 <= x41 <= 1
 0 <= x42 <= 1
 0 <= x43 <= 1
 0 <= x44 <= 1
 0 <= x45 <= 1
 0 <= x46 <= 1
 0 <= x47 <= 1
 0 <= x48 <= 1
 0 <= x49 <= 1
 0 <= x50 <= 1
 0 <= x51 <= 1
 0 <= x52 <= 1
 0 <= x53 <= 1
 0 <= x54 <= 1
 0 <= x55 <= 1
 0 <= x56 <= 1
 0 <= x57 <= 1
 0 <= x58 <= 1
 0 <= x59 <= 1
 0 <= x60 <= 1
 0 <= x61 <= 1
 0 <= x62 <= 1
 0 <= x63 <= 1
 0 <= x64 <= 1
 0 <= x65 <= 1
 0 <= x66 <= 1
 0 <= x67 <= 1
 0 <= x68 <= 1
 0 <= x69 <= 1
 0 <= x70 <= 1
 0 <= x71 <= 1
 0 <= x72 <= 1
 0 <= x73 <= 1
 0 <= x74 <= 1
 0 <= x75 <= 1
 0 <= x76 <= 1
 0 <= x77 <= 1
 0 <= x78 <= 1
 0 <= x79 <= 1
 0 <= x80 <= 1
 0 <= x81 <= 1
 0 <= x82 <= 1
 0 <= x83 <= 1
 0 <= x84 <= 1
 0 <= x85 <= 1
 0 <= x86 <= 1
 0 <= x87 <= 1
 0 <= x88 <= 1
 0 <= x89 <= 1
 0 <= x90 <= 1
 0 <= x91 <= 1
 0 <= x92 <= 1
 0 <= x93 <= 1
 0 <= x94 <= 1
 0 <= x95 <= 1
 0 <= x96 <= 1
 0 <= x97 <= 1
 0 <= x98 <= 1
 0 <= x99 <= 1
 0 <= x100 <= 1
 0 <= x101 <= 1
 0 <= x102 <= 1
 0 <= x103 <= 1
 0 <= x104 <= 1
 0 <= x105 <= 1
 0 <= x106 <= 1
 0 <= x107 <= 1
 0 <= x108 <= 1
 0 <= x109 <= 1
 0 <= x110 <= 1
 0 <= x111 <= 1
 0 <= x112 <= 1
 0 <= x113 <= 1
 0 <= x114 <= 1
 0 <= x115 <= 1
 0 <= x116 <= 1
 0 <= x117 <= 1
 0 <= x118 <= 1
 0 <= x119 <= 1
 0 <= x120 <= 1
 0 <= x121 <= 1
 0 <= x122 <= 1
 0 <= x123 <= 1
 0 <= x124 <= 1
 0 <= x125 <= 1
 0 <= x126 <= 1
 0 <= x127 <= 1
 0 <= x128 <= 1
 0 <= x129 <= 1
 0 <= x130 <= 1
 0 <= x131 <= 1
 0 <= x132 <= 1
 0 <= x133 <= 1
 0 <= x134 <= 1
 0 <= x135 <= 1
 0 <= x136 <= 1
 0 <= x137 <= 1
 0 <= x138 <= 1
 0 <= x139 <= 1
 0 <= x140 <= 1
 0 <= x141 <= 1
 0 <= x142 <= 1
 0 <= x143 <= 1
 0 <= x144 <= 1
 0 <= x145 <= 1
 0 <= x146 <= 1
 0 <= x147 <= 1
 0 <= x148 <= 1
 0 <= x149 <= 1
 0 <= x150 <= 1
 0 <= x151 <= 1
 0 <= x152 <= 1
 0 <= x153 <= 1
 0 <= x154 <= 1
 0 <= x155 <= 1
 0 <= x156 <= 1
 0 <= x157 <= 1
 0 <= x158 <= 1
 0 <= x159 <= 1
 0 <= x160 <= 1
 0 <= x161 <= 1
 0 <= x162 <= 1
 0 <= x163 <= 1
 0 <= x164 <= 1
 0 <= x165 <= 1
 0 <= x166 <= 1
 0 <= x167 <= 1
 0 <= x168 <= 1
 0 <= x169 <= 1
 0 <= x170 <= 1
 0 <= x171 <= 1
 0 <= x172 <= 1
 0 <= x173 <= 1
 0 <= x174 <= 1
 0 <= x175 <= 1
 0 <= x176 <= 1
 0 <= x177 <= 1
 0 <= x178 <= 1
 0 <= x179 <= 1
 0 <= x180 <= 1
 0 <= x181 <= 1
 0 <= x182 <= 1
 0 <= x183 <= 1
 0 <= x184 <= 1
 0 <= x185 <= 1
 0 <= x186 <= 1
 0 <= x187 <= 1
 0 <= x188 <= 1
 0 <= x189 <= 1
 0 <= x190 <= 1
 0 <= x191 <= 1
 0 <= x192 <= 1
 0 <= x193 <= 1
 0 <= x194 <= 1
 0 <= x195 <= 1
 0 <= x196 <= 1
 0 <= x197 <= 1
 0 <= x198 <= 1
 0 <= x199 <= 1
 0 <= x200 <= 1
 0 <= x201 <= 1
 0 <= x202 <= 1
 0 <= x203 <= 1
 0 <= x204 <= 1
 0 <= x205 <= 1
 0 <= x206 <= 1
 0 <= x207 <= 1
 0 <= x208 <= 1
 0 <= x209 <= 1
 0 <= x210 <= 1
 0 <= x211 <= 1
 0 <= x212 <= 1
 0 <= x213 <= 1
 0 <= x214 <= 1
 0 <= x215 <= 1
 0 <= x216 <= 1
 0 <= x217 <= 1
 0 <= x218 <= 1
 0 <= x219 <= 1
 0 <= x220 <= 1
 0 <= x221 <= 1
 0 <= x222 <= 1
 0 <= x223 <= 1
 0 <= x224 <= 1
 0 <= x225 <= 1
 0 <= x226 <= 1
 0 <= x227 <= 1
 0 <= x228 <= 1
 0 <= x229 <= 1
 0 <= x230 <= 1
 0 <= x231 <= 1
 0 <= x232 <= 1
 0 <= x233 <= 1
 0 <= x234 <= 1
 0 <= x235 <= 1
 0 <= x236 <= 1
 0 <= x237 <= 1
 0 <= x238 <= 1
 0 <= x239 <= 1
 0 <= x240 <= 1
 0 <= x241 <= 1
 0 <= x242 <= 1
 0 <= x243 <= 1
 0 <= x244 <= 1
 0 <= x245 <= 1
 0 <= x246 <= 1
 0 <= x247 <= 1
 0 <= x248 <= 1
 0 <= x249 <= 1
 0 <= x250 <= 1
 0 <= x251 <= 1
 0 <= x252 <= 1
 0 <= x253 <= 1
 0 <= x254 <= 1
 0 <= x255 <= 1
 0 <= x256 <= 1
 0 <= x257 <= 1
 0 <= x258 <= 1
 0 <= x259 <= 1
 0 <= x260 <= 1
 0 <= x261 <= 1
 0 <= x262 <= 1
 0 <= x263 <= 1
 0 <= x264 <= 1
 0 <= x265 <= 1
 0 <= x266 <= 1
 0 <= x267 <= 1
 0 <= x268 <= 1
 0 <= x269 <= 1
 0 <= x270 <= 1
 0 <= x271 <= 1
 0 <= x272 <= 1
 0 <= x273 <= 1
 0 <= x274 <= 1
 0 <= x275 <= 1
 0 <= x276 <= 1
 0 <= x277 <= 1
 0 <= x278 <= 1
 0 <= x279 <= 1
 0 <= x280 <= 1
 0 <= x281 <= 1
 0 <= x282 <= 1
 0 <= x283 <= 1
 0 <= x284 <= 1
 0 <= x285 <= 1
 0 <= x286 <= 1
 0 <= x287 <= 1
 0 <= x288 <= 1
 0 <= x289 <= 1
 0 <= x290 <= 1
 0 <= x291 <= 1
 0 <= x292 <= 1
 0 <= x293 <= 1
 0 <= x294 <= 1
 0 <= x295 <= 1
 0 <= x296 <= 1
 0 <= x297 <= 1
 0 <= x298 <= 1
 0 <= x299 <= 1
 0 <= x300 <= 1
 0 <= x301 <= 1
 0 <= x302 <= 1
 0 <= x303 <= 1
 0 <= x304 <= 1
 0 <= x305 <= 1
 0 <= x306 <= 1
 0 <= x307 <= 1
 0 <= x308 <= 1
 0 <= x309 <= 1
 0 <= x310 <= 1
 0 <= x311 <= 1
 0 <= x312 <= 1
 0 <= x313 <= 1
 0 <= x314 <= 1
 0 <= x315 <= 1
 0 <= x316 <= 1
 0 <= x317 <= 1
 0 <= x318 <= 1
 0 <= x319 <= 1
 0 <= x320 <= 1
 0 <= x321 <= 1
 0 <= x322 <= 1
 0 <= x323 <= 1
 0 <= x324 <= 1
 0 <= x325 <= 1
 0 <= x326 <= 1
 0 <= x327 <= 1
 0 <= x328 <= 1
 0 <= x329 <= 1
 0 <= x330 <= 1
 0 <= x331 <= 1
 0 <= x332 <= 1
 0 <= x333 <= 1
 0 <= x334 <= 1
 0 <= x335 <= 1
 0 <= x336 <= 1
 0 <= x337 <= 1
 0 <= x338 <= 1
 0 <= x339 <= 1
 0 <= x340 <= 1
 0 <= x341 <= 1
 0 <= x342 <= 1
 0 <= x343 <= 1
 0 <= x344 <= 1
 0 <= x345 <= 1
 0 <= x346 <= 1
 0 <= x347 <= 1
 0 <= x348 <= 1
 0 <= x349 <= 1
 0 <= x350 <= 1
 0 <= x351 <= 1
 0 <= x352 <= 1
 0 <= x353 <= 1
 0 <= x354 <= 1
 0 <= x355 <= 1
 0 <= x356 <= 1
 0 <= x357 <= 1
 0 <= x358 <= 1
 0 <= x359 <= 1
 0 <= x360 <= 1
 0 <= x361 <= 1
 0 <= x362 <= 1
 0 <= x363 <= 1
 0 <= x364 <= 1
 0 <= x365 <= 1
 0 <= x366 <= 1
 0 <= x367 <= 1
 0 <= x368 <= 1
 0 <= x369 <= 1
 0 <= x370 <= 1
 0 <= x371 <= 1
 0 <= x372 <= 1
 0 <= x373 <= 1
 0 <= x374 <= 1
 0 <= x375 <= 1
 0 <= x376 <= 1
 0 <= x377 <= 1
 0 <= x378 <= 1
 0 <= x379 <= 1
 0 <= x380 <= 1
 0 <= x381 <= 1
 0 <= x382 <= 1
 0 <= x383 <= 1
 0 <= x384 <= 1
 0 <= x385 <= 1
 0 <= x386 <= 1
 0 <= x387 <= 1
 0 <= x388 <= 1
 0 <= x389 <= 1
 0 <= x390 <= 1
 0 <= x391 <= 1
 0 <= x392 <= 1
 0 <= x393 <= 1
 0 <= x394 <= 1
 0 <= x395 <= 1
 0 <= x396 <= 1
 0 <= x397 <= 1
 0 <= x398 <= 1
 0 <= x399 <= 1
 0 <= x400 <= 1
 0 <= x401 <= 1
 0 <= x402 <= 1
 0 <= x403 <= 1
 0 <= x404 <= 1
 0 <= x405 <= 1
 0 <= x406 <= 1
 0 <= x407 <= 1
 0 <= x408 <= 1
 0 <= x409 <= 1
 0 <= x410 <= 1
 0 <= x411 <= 1
 0 <= x412 <= 1
 0 <= x413 <= 1
 0 <= x414 <= 1
 0 <= x415 <= 1
 0 <= x416 <= 1
 0 <= x417 <= 1
 0 <= x418 <= 1
 0 <= x419 <= 1
 0 <= x420 <= 1
 0 <= x421 <= 1
 0 <= x422 <= 1
 0 <= x423 <= 1
 0 <= x424 <= 1
 0 <= x425 <= 1
 0 <= x426 <= 1
 0 <= x427 <= 1
 0 <= x428 <= 1
 0 <= x429 <= 1
 0 <= x430 <= 1
 0 <= x431 <= 1
 0 <= x432 <= 1
 0 <= x433 <= 1
 0 <= x434 <= 1
 0 <= x435 <= 1
 0 <= x436 <= 1
 0 <= x437 <= 1
 0 <= x438 <= 1
 0 <= x439 <= 1
 0 <= x440 <= 1
 0 <= x441 <= 1
 0 <= x442 <= 1
 0 <= x443 <= 1
 0 <= x444 <= 1
 0 <= x445 <= 1
 0 <= x446 <= 1
 0 <= x447 <= 1
 0 <= x448 <= 1
 0 <= x449 <= 1
 0 <= x450 <= 1
 0 <= x451 <= 1
 0 <= x452 <= 1
 0 <= x453 <= 1
 0 <= x454 <= 1
 0 <= x455 <= 1
 0 <= x456 <= 1
 0 <= x457 <= 1
 0 <= x458 <= 1
 0 <= x459 <= 1
 0 <= x460 <= 1
 0 <= x461 <= 1
 0 <= x462 <= 1
 0 <= x463 <= 1
 0 <= x464 <= 1
 0 <= x465 <= 1
 0 <= x466 <= 1
 0 <= x467 <= 1
 0 <= x468 <= 1
 0 <= x469 <= 1
 0 <= x470 <= 1
 0 <= x471 <= 1
 0 <= x472 <= 1
 0 <= x473 <= 1
 0 <= x474 <= 1
 0 <= x475 <= 1
 0 <= x476 <= 1
 0 <= x477 <= 1
 0 <= x478 <= 1
 0 <= x479 <= 1
 0 <= x480 <= 1
 0 <= x481 <= 1
 0 <= x482 <= 1
 0 <= x483 <= 1
 0 <= x484 <= 1
 0 <= x485 <= 1
 0 <= x486 <= 1
 0 <= x487 <= 1
 0 <= x488 <= 1
 0 <= x489 <= 1
 0 <= x490 <= 1
 0 <= x491 <= 1
 0 <= x492 <= 1
 0 <= x493 <= 1
 0 <= x494 <= 1
 0 <= x495 <= 1
 0 <= x496 <= 1
 0 <= x497 <= 1
 0 <= x498 <= 1
 0 <= x499 <= 1
 0 <= x500 <= 1
 0 <= x501 <= 1
 0 <= x502 <= 1
 0 <= x503 <= 1
 0 <= x504 <= 1
 0 <= x505 <= 1
 0 <= x506 <= 1
 0 <= x507 <= 1
 0 <= x508 <= 1
 0 <= x509 <= 1
 0 <= x510 <= 1
 0 <= x511 <= 1
 0 <= x512 <= 1
 0 <= x513 <= 1
 0 <= x514 <= 1
 0 <= x515 <= 1
 0 <= x516 <= 1
 0 <= x517 <= 1
 0 <= x518 <= 1
 0 <= x519 <= 1
 0 <= x520 <= 1
 0 <= x521 <= 1
 0 <= x522 <= 1
 0 <= x523 <= 1
 0 <= x524 <= 1
 0 <= x525 <= 1
 0 <= x526 <= 1
 0 <= x527 <= 1
 0 <= x528 <= 1
 0 <= x529 <= 1
 0 <= x530 <= 1
 0 <= x531 <= 1
 0 <= x532 <= 1
 0 <= x533 <= 1
 0 <= x534 <= 1
 0 <= x535 <= 1
 0 <= x536 <= 1
 0 <= x537 <= 1
 0 <= x538 <= 1
 0 <= x539 <= 1
 0 <= x540 <= 1
 0 <= x541 <= 1
 0 <= x542 <= 1
 0 <= x543 <= 1
 0 <= x544 <= 1
 0 <= x545 <= 1
 0 <= x546 <= 1
 0 <= x547 <= 1
 0 <= x548 <= 1
 0 <= x549 <= 1
 0 <= x550 <= 1
 0 <= x551 <= 1
 0 <= x552 <= 1
 0 <= x553 <= 1
 0 <= x554 <= 1
 0 <= x555 <= 1
 0 <= x556 <= 1
 0 <= x557 <= 1
 0 <= x558 <= 1
 0 <= x559 <= 1
 0 <= x560 <= 1
 0 <= x561 <= 1
 0 <= x562 <= 1
 0 <= x563 <= 1
 0 <= x564 <= 1
 0 <= x565 <= 1
 0 <= x566 <= 1
 0 <= x567 <= 1
 0 <= x568 <= 1
 0 <= x569 <= 1
 0 <= x570 <= 1
 0 <= x571 <= 1
 0 <= x572 <= 1
 0 <= x573 <= 1
 0 <= x574 <= 1
 0 <= x575 <= 1
 0 <= x576 <= 1
 0 <= x577 <= 1
 0 <= x578 <= 1
 0 <= x579 <= 1
 0 <= x580 <= 1
 0 <= x581 <= 1
 0 <= x582 <= 1
 0 <= x583 <= 1
 0 <= x584 <= 1
 0 <= x585 <= 1
 0 <= x586 <= 1
 0 <= x587 <= 1
 0 <= x588 <= 1
 0 <= x589 <= 1
 0 <= x590 <= 1
 0 <= x591 <= 1
 0 <= x592 <= 1
 0 <= x593 <= 1
 0 <= x594 <= 1
 0 <= x595 <= 1
 0 <= x596 <= 1
 0 <= x597 <= 1
 0 <= x598 <= 1
 0 <= x599 <= 1
 0 <= x600 <= 1
 0 <= x601 <= 1
 0 <= x602 <= 1
 0 <= x603 <= 1
 0 <= x604 <= 1
 0 <= x605 <= 1
 0 <= x606 <= 1
 0 <= x607 <= 1
 0 <= x608 <= 1
 0 <= x609 <= 1
 0 <= x610 <= 1
 0 <= x611 <= 1
 0 <= x612 <= 1
 0 <= x613 <= 1
 0 <= x614 <= 1
 0 <= x615 <= 1
 0 <= x616 <= 1
 0 <= x617 <= 1
 0 <= x618 <= 1
 0 <= x619 <= 1
 0 <= x620 <= 1
 0 <= x621 <= 1
 0 <= x622 <= 1
 0 <= x623 <= 1
 0 <= x624 <= 1
 0 <= x625 <= 1
 0 <= x626 <= 1
 0 <= x627 <= 1
 0 <= x628 <= 1
 0 <= x629 <= 1
 0 <= x630 <= 1
 0 <= x631 <= 1
 0 <= x632 <= 1
 0 <= x633 <= 1
 0 <= x634 <= 1
 0 <= x635 <= 1
 0 <= x636 <= 1
 0 <= x637 <= 1
 0 <= x638 <= 1
 0 <= x639 <= 1
 0 <= x640 <= 1
 0 <= x641 <= 1
 0 <= x642 <= 1
 0 <= x643 <= 1
 0 <= x644 <= 1
 0 <= x645 <= 1
 0 <= x646 <= 1
 0 <= x647 <= 1
 0 <= x648 <= 1
 0 <= x649 <= 1
 0 <= x650 <= 1
 0 <= x651 <= 1
 0 <= x652 <= 1
 0 <= x653 <= 1
 0 <= x654 <= 1
 0 <= x655 <= 1
 0 <= x656 <= 1
 0 <= x657 <= 1
 0 <= x658 <= 1
 0 <= x659 <= 1
 0 <= x660 <= 1
Binaries
 x601  x602  x603  x604  x605  x606  x607  x608  x609  x610  x611  x612  x613 
 x614  x615  x616  x617  x618  x619  x620  x621  x622  x623  x624  x625  x626 
 x627  x628  x629  x630  x631  x632  x633  x634  x635  x636  x637  x638  x639 
 x640  x641  x642  x643  x644  x645  x646  x647  x648  x649  x650  x651  x652 
 x653  x654  x655  x656  x657  x658  x659  x660 
End
